Maximize
  - 3.325909392495 edge_0_1_0_0 - 4.7761794268584 edge_0_2_0_0
   - 1.6464 edge_0_3_0_0 - 5.019399096508 edge_0_4_0_0
   - 2.6910357051632 edge_0_10_0_0 - 0.24674472011043 edge_1_2_0_0
   + 0.9623432799787924 edge_2_1_0_0 + 1.7781697866196 edge_2_3_0_0
   + 1.456599563020031 edge_2_4_0_0 + 1.212830500074822 edge_2_5_0_0
   + 0.268410792995881 edge_2_6_0_0 - 0.3378967020864709 edge_2_7_0_0
   + 1.144598305888787 edge_2_8_0_0 - 0.6951355439287648 edge_2_10_0_0
   - 1.059889300472669 edge_2_12_0_0 + 0.3228709959757758 edge_2_13_0_0
   - 1.203999032253099 edge_2_14_0_0 + 1.368024357978 edge_3_1_0_0
   + 2.70874967495 edge_3_2_0_0 + 2.7804594995172 edge_3_4_0_0
   + 1.2436671054363 edge_3_5_0_0 - 0.037706075095332 edge_3_6_0_0
   - 0.35258677645688 edge_3_7_0_0 + 0.9150020983933901 edge_3_8_0_0
   + 0.02912662121124 edge_3_10_0_0 + 0.23905387091084 edge_3_12_0_0
   - 0.4962220608918 edge_3_13_0_0 - 0.12065636672946 edge_3_14_0_0
   - 0.79857323981463 edge_3_17_0_0 + 0.3324988470628967 edge_4_1_0_0
   - 0.1052809684157023 edge_4_2_0_0 + 0.12578797735816 edge_4_3_0_0
   + 0.3446925607094579 edge_4_5_0_0 - 0.9307647695027114 edge_4_7_0_0
   + 0.99807770892543 edge_4_8_0_0 - 0.9432356549887515 edge_4_10_0_0
   - 1.249149100612121 edge_4_12_0_0 - 0.4268123513707829 edge_4_13_0_0
   - 1.678458770444567 edge_4_14_0_0 - 0.9951829673601336 edge_4_17_0_0
   - 0.2972207076116229 edge_5_4_0_0 + 0.1489284780698137 edge_6_7_0_0
   - 0.2841030538034738 edge_6_10_0_0 - 0.4869608259476119 edge_6_12_0_0
   - 0.8623213631642765 edge_7_1_0_0 - 1.040485808292 edge_7_3_0_0
   - 0.8303933773273506 edge_7_5_0_0 + 2.03469673974752 edge_7_6_0_0
   + 0.0771085574870197 edge_7_10_0_0 - 0.726062289258293 edge_7_11_0_0
   + 0.3029001449899934 edge_7_12_0_0 - 0.8057848476669962 edge_7_14_0_0
   - 0.6335020848344355 edge_7_17_0_0 - 0.7480002719391202 edge_8_1_0_0
   - 1.213073506238462 edge_8_2_0_0 - 0.80789751694836 edge_8_3_0_0
   - 0.3866514773828816 edge_8_4_0_0 + 0.0269515446030196 edge_8_5_0_0
   + 0.0317484370835198 edge_8_6_0_0 + 0.0212828448500184 edge_8_7_0_0
   + 0.0888089322502868 edge_8_10_0_0 - 0.8427513528146238 edge_8_12_0_0
   + 0.1774884672451092 edge_8_13_0_0 - 1.240359798331276 edge_8_14_0_0
   - 0.7430552167266636 edge_8_17_0_0 - 1.026824598609033 edge_10_2_0_0
   - 2.1279888579528 edge_10_3_0_0 - 1.500371541979474 edge_10_4_0_0
   - 0.7369226509720144 edge_10_5_0_0 + 0.4136238983870041 edge_10_6_0_0
   + 0.2349417099448774 edge_10_7_0_0 - 0.3330949077286006 edge_10_8_0_0
   + 0.2082216007440349 edge_10_12_0_0 + 0.624128445023142 edge_10_13_0_0
   - 0.4457217658623887 edge_10_14_0_0 - 0.3965658022285302 edge_10_17_0_0
   - 0.3561258697590024 edge_11_17_0_0 - 1.740445589467874 edge_12_1_0_0
   - 2.1819188217632 edge_12_3_0_0 + 0.0942346511823209 edge_12_6_0_0
   - 0.1642936090669632 edge_12_7_0_0 + 2.45642685838298 edge_12_11_0_0
   + 1.023753963700261 edge_12_13_0_0 + 0.7305607970286365 edge_12_14_0_0
   + 1.24227064361809 edge_12_17_0_0 + 0.4264715268182601 edge_14_11_0_0
   + 0.2339663998613484 edge_14_13_0_0 + 0.4890972637211926 edge_14_17_0_0
   - 0.8772499936895882 edge_17_2_0_0 - 0.9163126356932999 edge_17_3_0_0
   + 0.201916169377478 edge_17_6_0_0 + 0.2702515532541054 edge_17_7_0_0
   - 0.7207998251509857 edge_17_8_0_0 + 0.4315030527104852 edge_17_11_0_0
   - 0.2008239499354485 edge_17_12_0_0 + 1.637840765346656 edge_17_13_0_0
   + 2.205792020672516 edge_17_14_0_0
Subject To
 one_parent_1: edge_0_1_0_0 + edge_2_1_0_0 + edge_3_1_0_0 + edge_4_1_0_0
   + edge_7_1_0_0 + edge_8_1_0_0 + edge_12_1_0_0 = 1
 consume_one_flow_unit_1: flow_0_1_0_0 - flow_1_2_0_0 + flow_2_1_0_0
   + flow_3_1_0_0 + flow_4_1_0_0 + flow_7_1_0_0 + flow_8_1_0_0
   + flow_12_1_0_0 = 1
 one_parent_2: edge_0_2_0_0 + edge_1_2_0_0 + edge_3_2_0_0 + edge_4_2_0_0
   + edge_8_2_0_0 + edge_10_2_0_0 + edge_17_2_0_0 = 1
 consume_one_flow_unit_2: flow_0_2_0_0 + flow_1_2_0_0 - flow_2_1_0_0
   - flow_2_3_0_0 - flow_2_4_0_0 - flow_2_5_0_0 - flow_2_6_0_0
   - flow_2_7_0_0 - flow_2_8_0_0 - flow_2_10_0_0 - flow_2_12_0_0
   - flow_2_13_0_0 - flow_2_14_0_0 + flow_3_2_0_0 + flow_4_2_0_0
   + flow_8_2_0_0 + flow_10_2_0_0 + flow_17_2_0_0 = 1
 one_parent_3: edge_0_3_0_0 + edge_2_3_0_0 + edge_4_3_0_0 + edge_7_3_0_0
   + edge_8_3_0_0 + edge_10_3_0_0 + edge_12_3_0_0 + edge_17_3_0_0 = 1
 consume_one_flow_unit_3: flow_0_3_0_0 + flow_2_3_0_0 - flow_3_1_0_0
   - flow_3_2_0_0 - flow_3_4_0_0 - flow_3_5_0_0 - flow_3_6_0_0
   - flow_3_7_0_0 - flow_3_8_0_0 - flow_3_10_0_0 - flow_3_12_0_0
   - flow_3_13_0_0 - flow_3_14_0_0 - flow_3_17_0_0 + flow_4_3_0_0
   + flow_7_3_0_0 + flow_8_3_0_0 + flow_10_3_0_0 + flow_12_3_0_0
   + flow_17_3_0_0 = 1
 one_parent_4: edge_0_4_0_0 + edge_2_4_0_0 + edge_3_4_0_0 + edge_5_4_0_0
   + edge_8_4_0_0 + edge_10_4_0_0 = 1
 consume_one_flow_unit_4: flow_0_4_0_0 + flow_2_4_0_0 + flow_3_4_0_0
   - flow_4_1_0_0 - flow_4_2_0_0 - flow_4_3_0_0 - flow_4_5_0_0
   - flow_4_7_0_0 - flow_4_8_0_0 - flow_4_10_0_0 - flow_4_12_0_0
   - flow_4_13_0_0 - flow_4_14_0_0 - flow_4_17_0_0 + flow_5_4_0_0
   + flow_8_4_0_0 + flow_10_4_0_0 = 1
 one_parent_5: edge_2_5_0_0 + edge_3_5_0_0 + edge_4_5_0_0 + edge_7_5_0_0
   + edge_8_5_0_0 + edge_10_5_0_0 = 1
 consume_one_flow_unit_5: flow_2_5_0_0 + flow_3_5_0_0 + flow_4_5_0_0
   - flow_5_4_0_0 + flow_7_5_0_0 + flow_8_5_0_0 + flow_10_5_0_0 = 1
 one_parent_6: edge_2_6_0_0 + edge_3_6_0_0 + edge_7_6_0_0 + edge_8_6_0_0
   + edge_10_6_0_0 + edge_12_6_0_0 + edge_17_6_0_0 = 1
 consume_one_flow_unit_6: flow_2_6_0_0 + flow_3_6_0_0 - flow_6_7_0_0
   - flow_6_10_0_0 - flow_6_12_0_0 + flow_7_6_0_0 + flow_8_6_0_0
   + flow_10_6_0_0 + flow_12_6_0_0 + flow_17_6_0_0 = 1
 one_parent_7: edge_2_7_0_0 + edge_3_7_0_0 + edge_4_7_0_0 + edge_6_7_0_0
   + edge_8_7_0_0 + edge_10_7_0_0 + edge_12_7_0_0 + edge_17_7_0_0 = 1
 consume_one_flow_unit_7: flow_2_7_0_0 + flow_3_7_0_0 + flow_4_7_0_0
   + flow_6_7_0_0 - flow_7_1_0_0 - flow_7_3_0_0 - flow_7_5_0_0
   - flow_7_6_0_0 - flow_7_10_0_0 - flow_7_11_0_0 - flow_7_12_0_0
   - flow_7_14_0_0 - flow_7_17_0_0 + flow_8_7_0_0 + flow_10_7_0_0
   + flow_12_7_0_0 + flow_17_7_0_0 = 1
 one_parent_8: edge_2_8_0_0 + edge_3_8_0_0 + edge_4_8_0_0 + edge_10_8_0_0
   + edge_17_8_0_0 = 1
 consume_one_flow_unit_8: flow_2_8_0_0 + flow_3_8_0_0 + flow_4_8_0_0
   - flow_8_1_0_0 - flow_8_2_0_0 - flow_8_3_0_0 - flow_8_4_0_0
   - flow_8_5_0_0 - flow_8_6_0_0 - flow_8_7_0_0 - flow_8_10_0_0
   - flow_8_12_0_0 - flow_8_13_0_0 - flow_8_14_0_0 - flow_8_17_0_0
   + flow_10_8_0_0 + flow_17_8_0_0 = 1
 one_parent_9: = 1
 consume_one_flow_unit_9: = 1
 one_parent_10: edge_0_10_0_0 + edge_2_10_0_0 + edge_3_10_0_0
   + edge_4_10_0_0 + edge_6_10_0_0 + edge_7_10_0_0 + edge_8_10_0_0 = 1
 consume_one_flow_unit_10: flow_0_10_0_0 + flow_2_10_0_0 + flow_3_10_0_0
   + flow_4_10_0_0 + flow_6_10_0_0 + flow_7_10_0_0 + flow_8_10_0_0
   - flow_10_2_0_0 - flow_10_3_0_0 - flow_10_4_0_0 - flow_10_5_0_0
   - flow_10_6_0_0 - flow_10_7_0_0 - flow_10_8_0_0 - flow_10_12_0_0
   - flow_10_13_0_0 - flow_10_14_0_0 - flow_10_17_0_0 = 1
 one_parent_11: edge_7_11_0_0 + edge_12_11_0_0 + edge_14_11_0_0
   + edge_17_11_0_0 = 1
 consume_one_flow_unit_11: flow_7_11_0_0 - flow_11_17_0_0 + flow_12_11_0_0
   + flow_14_11_0_0 + flow_17_11_0_0 = 1
 one_parent_12: edge_2_12_0_0 + edge_3_12_0_0 + edge_4_12_0_0
   + edge_6_12_0_0 + edge_7_12_0_0 + edge_8_12_0_0 + edge_10_12_0_0
   + edge_17_12_0_0 = 1
 consume_one_flow_unit_12: flow_2_12_0_0 + flow_3_12_0_0 + flow_4_12_0_0
   + flow_6_12_0_0 + flow_7_12_0_0 + flow_8_12_0_0 + flow_10_12_0_0
   - flow_12_1_0_0 - flow_12_3_0_0 - flow_12_6_0_0 - flow_12_7_0_0
   - flow_12_11_0_0 - flow_12_13_0_0 - flow_12_14_0_0 - flow_12_17_0_0
   + flow_17_12_0_0 = 1
 one_parent_13: edge_2_13_0_0 + edge_3_13_0_0 + edge_4_13_0_0
   + edge_8_13_0_0 + edge_10_13_0_0 + edge_12_13_0_0 + edge_14_13_0_0
   + edge_17_13_0_0 = 1
 consume_one_flow_unit_13: flow_2_13_0_0 + flow_3_13_0_0 + flow_4_13_0_0
   + flow_8_13_0_0 + flow_10_13_0_0 + flow_12_13_0_0 + flow_14_13_0_0
   + flow_17_13_0_0 = 1
 one_parent_14: edge_2_14_0_0 + edge_3_14_0_0 + edge_4_14_0_0
   + edge_7_14_0_0 + edge_8_14_0_0 + edge_10_14_0_0 + edge_12_14_0_0
   + edge_17_14_0_0 = 1
 consume_one_flow_unit_14: flow_2_14_0_0 + flow_3_14_0_0 + flow_4_14_0_0
   + flow_7_14_0_0 + flow_8_14_0_0 + flow_10_14_0_0 + flow_12_14_0_0
   - flow_14_11_0_0 - flow_14_13_0_0 - flow_14_17_0_0 + flow_17_14_0_0 = 1
 one_parent_15: = 1
 consume_one_flow_unit_15: = 1
 one_parent_16: = 1
 consume_one_flow_unit_16: = 1
 one_parent_17: edge_3_17_0_0 + edge_4_17_0_0 + edge_7_17_0_0
   + edge_8_17_0_0 + edge_10_17_0_0 + edge_11_17_0_0 + edge_12_17_0_0
   + edge_14_17_0_0 = 1
 consume_one_flow_unit_17: flow_3_17_0_0 + flow_4_17_0_0 + flow_7_17_0_0
   + flow_8_17_0_0 + flow_10_17_0_0 + flow_11_17_0_0 + flow_12_17_0_0
   + flow_14_17_0_0 - flow_17_2_0_0 - flow_17_3_0_0 - flow_17_6_0_0
   - flow_17_7_0_0 - flow_17_8_0_0 - flow_17_11_0_0 - flow_17_12_0_0
   - flow_17_13_0_0 - flow_17_14_0_0 = 1
 one_parent_18: = 1
 consume_one_flow_unit_18: = 1
 root_flow: flow_0_1_0_0 + flow_0_2_0_0 + flow_0_3_0_0 + flow_0_4_0_0
   + flow_0_10_0_0 = 18
 inactive_no_flow_0_1_0_0: flow_0_1_0_0 - 1000 edge_0_1_0_0 <= 0
 inactive_no_flow_0_2_0_0: flow_0_2_0_0 - 1000 edge_0_2_0_0 <= 0
 inactive_no_flow_0_3_0_0: flow_0_3_0_0 - 1000 edge_0_3_0_0 <= 0
 inactive_no_flow_0_4_0_0: flow_0_4_0_0 - 1000 edge_0_4_0_0 <= 0
 inactive_no_flow_0_10_0_0: flow_0_10_0_0 - 1000 edge_0_10_0_0 <= 0
 inactive_no_flow_1_2_0_0: flow_1_2_0_0 - 1000 edge_1_2_0_0 <= 0
 inactive_no_flow_2_1_0_0: flow_2_1_0_0 - 1000 edge_2_1_0_0 <= 0
 inactive_no_flow_2_3_0_0: flow_2_3_0_0 - 1000 edge_2_3_0_0 <= 0
 inactive_no_flow_2_4_0_0: flow_2_4_0_0 - 1000 edge_2_4_0_0 <= 0
 inactive_no_flow_2_5_0_0: flow_2_5_0_0 - 1000 edge_2_5_0_0 <= 0
 inactive_no_flow_2_6_0_0: flow_2_6_0_0 - 1000 edge_2_6_0_0 <= 0
 inactive_no_flow_2_7_0_0: flow_2_7_0_0 - 1000 edge_2_7_0_0 <= 0
 inactive_no_flow_2_8_0_0: flow_2_8_0_0 - 1000 edge_2_8_0_0 <= 0
 inactive_no_flow_2_10_0_0: flow_2_10_0_0 - 1000 edge_2_10_0_0 <= 0
 inactive_no_flow_2_12_0_0: flow_2_12_0_0 - 1000 edge_2_12_0_0 <= 0
 inactive_no_flow_2_13_0_0: flow_2_13_0_0 - 1000 edge_2_13_0_0 <= 0
 inactive_no_flow_2_14_0_0: flow_2_14_0_0 - 1000 edge_2_14_0_0 <= 0
 inactive_no_flow_3_1_0_0: flow_3_1_0_0 - 1000 edge_3_1_0_0 <= 0
 inactive_no_flow_3_2_0_0: flow_3_2_0_0 - 1000 edge_3_2_0_0 <= 0
 inactive_no_flow_3_4_0_0: flow_3_4_0_0 - 1000 edge_3_4_0_0 <= 0
 inactive_no_flow_3_5_0_0: flow_3_5_0_0 - 1000 edge_3_5_0_0 <= 0
 inactive_no_flow_3_6_0_0: flow_3_6_0_0 - 1000 edge_3_6_0_0 <= 0
 inactive_no_flow_3_7_0_0: flow_3_7_0_0 - 1000 edge_3_7_0_0 <= 0
 inactive_no_flow_3_8_0_0: flow_3_8_0_0 - 1000 edge_3_8_0_0 <= 0
 inactive_no_flow_3_10_0_0: flow_3_10_0_0 - 1000 edge_3_10_0_0 <= 0
 inactive_no_flow_3_12_0_0: flow_3_12_0_0 - 1000 edge_3_12_0_0 <= 0
 inactive_no_flow_3_13_0_0: flow_3_13_0_0 - 1000 edge_3_13_0_0 <= 0
 inactive_no_flow_3_14_0_0: flow_3_14_0_0 - 1000 edge_3_14_0_0 <= 0
 inactive_no_flow_3_17_0_0: flow_3_17_0_0 - 1000 edge_3_17_0_0 <= 0
 inactive_no_flow_4_1_0_0: flow_4_1_0_0 - 1000 edge_4_1_0_0 <= 0
 inactive_no_flow_4_2_0_0: flow_4_2_0_0 - 1000 edge_4_2_0_0 <= 0
 inactive_no_flow_4_3_0_0: flow_4_3_0_0 - 1000 edge_4_3_0_0 <= 0
 inactive_no_flow_4_5_0_0: flow_4_5_0_0 - 1000 edge_4_5_0_0 <= 0
 inactive_no_flow_4_7_0_0: flow_4_7_0_0 - 1000 edge_4_7_0_0 <= 0
 inactive_no_flow_4_8_0_0: flow_4_8_0_0 - 1000 edge_4_8_0_0 <= 0
 inactive_no_flow_4_10_0_0: flow_4_10_0_0 - 1000 edge_4_10_0_0 <= 0
 inactive_no_flow_4_12_0_0: flow_4_12_0_0 - 1000 edge_4_12_0_0 <= 0
 inactive_no_flow_4_13_0_0: flow_4_13_0_0 - 1000 edge_4_13_0_0 <= 0
 inactive_no_flow_4_14_0_0: flow_4_14_0_0 - 1000 edge_4_14_0_0 <= 0
 inactive_no_flow_4_17_0_0: flow_4_17_0_0 - 1000 edge_4_17_0_0 <= 0
 inactive_no_flow_5_4_0_0: flow_5_4_0_0 - 1000 edge_5_4_0_0 <= 0
 inactive_no_flow_6_7_0_0: flow_6_7_0_0 - 1000 edge_6_7_0_0 <= 0
 inactive_no_flow_6_10_0_0: flow_6_10_0_0 - 1000 edge_6_10_0_0 <= 0
 inactive_no_flow_6_12_0_0: flow_6_12_0_0 - 1000 edge_6_12_0_0 <= 0
 inactive_no_flow_7_1_0_0: flow_7_1_0_0 - 1000 edge_7_1_0_0 <= 0
 inactive_no_flow_7_3_0_0: flow_7_3_0_0 - 1000 edge_7_3_0_0 <= 0
 inactive_no_flow_7_5_0_0: flow_7_5_0_0 - 1000 edge_7_5_0_0 <= 0
 inactive_no_flow_7_6_0_0: flow_7_6_0_0 - 1000 edge_7_6_0_0 <= 0
 inactive_no_flow_7_10_0_0: flow_7_10_0_0 - 1000 edge_7_10_0_0 <= 0
 inactive_no_flow_7_11_0_0: flow_7_11_0_0 - 1000 edge_7_11_0_0 <= 0
 inactive_no_flow_7_12_0_0: flow_7_12_0_0 - 1000 edge_7_12_0_0 <= 0
 inactive_no_flow_7_14_0_0: flow_7_14_0_0 - 1000 edge_7_14_0_0 <= 0
 inactive_no_flow_7_17_0_0: flow_7_17_0_0 - 1000 edge_7_17_0_0 <= 0
 inactive_no_flow_8_1_0_0: flow_8_1_0_0 - 1000 edge_8_1_0_0 <= 0
 inactive_no_flow_8_2_0_0: flow_8_2_0_0 - 1000 edge_8_2_0_0 <= 0
 inactive_no_flow_8_3_0_0: flow_8_3_0_0 - 1000 edge_8_3_0_0 <= 0
 inactive_no_flow_8_4_0_0: flow_8_4_0_0 - 1000 edge_8_4_0_0 <= 0
 inactive_no_flow_8_5_0_0: flow_8_5_0_0 - 1000 edge_8_5_0_0 <= 0
 inactive_no_flow_8_6_0_0: flow_8_6_0_0 - 1000 edge_8_6_0_0 <= 0
 inactive_no_flow_8_7_0_0: flow_8_7_0_0 - 1000 edge_8_7_0_0 <= 0
 inactive_no_flow_8_10_0_0: flow_8_10_0_0 - 1000 edge_8_10_0_0 <= 0
 inactive_no_flow_8_12_0_0: flow_8_12_0_0 - 1000 edge_8_12_0_0 <= 0
 inactive_no_flow_8_13_0_0: flow_8_13_0_0 - 1000 edge_8_13_0_0 <= 0
 inactive_no_flow_8_14_0_0: flow_8_14_0_0 - 1000 edge_8_14_0_0 <= 0
 inactive_no_flow_8_17_0_0: flow_8_17_0_0 - 1000 edge_8_17_0_0 <= 0
 inactive_no_flow_10_2_0_0: flow_10_2_0_0 - 1000 edge_10_2_0_0 <= 0
 inactive_no_flow_10_3_0_0: flow_10_3_0_0 - 1000 edge_10_3_0_0 <= 0
 inactive_no_flow_10_4_0_0: flow_10_4_0_0 - 1000 edge_10_4_0_0 <= 0
 inactive_no_flow_10_5_0_0: flow_10_5_0_0 - 1000 edge_10_5_0_0 <= 0
 inactive_no_flow_10_6_0_0: flow_10_6_0_0 - 1000 edge_10_6_0_0 <= 0
 inactive_no_flow_10_7_0_0: flow_10_7_0_0 - 1000 edge_10_7_0_0 <= 0
 inactive_no_flow_10_8_0_0: flow_10_8_0_0 - 1000 edge_10_8_0_0 <= 0
 inactive_no_flow_10_12_0_0: flow_10_12_0_0 - 1000 edge_10_12_0_0 <= 0
 inactive_no_flow_10_13_0_0: flow_10_13_0_0 - 1000 edge_10_13_0_0 <= 0
 inactive_no_flow_10_14_0_0: flow_10_14_0_0 - 1000 edge_10_14_0_0 <= 0
 inactive_no_flow_10_17_0_0: flow_10_17_0_0 - 1000 edge_10_17_0_0 <= 0
 inactive_no_flow_11_17_0_0: flow_11_17_0_0 - 1000 edge_11_17_0_0 <= 0
 inactive_no_flow_12_1_0_0: flow_12_1_0_0 - 1000 edge_12_1_0_0 <= 0
 inactive_no_flow_12_3_0_0: flow_12_3_0_0 - 1000 edge_12_3_0_0 <= 0
 inactive_no_flow_12_6_0_0: flow_12_6_0_0 - 1000 edge_12_6_0_0 <= 0
 inactive_no_flow_12_7_0_0: flow_12_7_0_0 - 1000 edge_12_7_0_0 <= 0
 inactive_no_flow_12_11_0_0: flow_12_11_0_0 - 1000 edge_12_11_0_0 <= 0
 inactive_no_flow_12_13_0_0: flow_12_13_0_0 - 1000 edge_12_13_0_0 <= 0
 inactive_no_flow_12_14_0_0: flow_12_14_0_0 - 1000 edge_12_14_0_0 <= 0
 inactive_no_flow_12_17_0_0: flow_12_17_0_0 - 1000 edge_12_17_0_0 <= 0
 inactive_no_flow_14_11_0_0: flow_14_11_0_0 - 1000 edge_14_11_0_0 <= 0
 inactive_no_flow_14_13_0_0: flow_14_13_0_0 - 1000 edge_14_13_0_0 <= 0
 inactive_no_flow_14_17_0_0: flow_14_17_0_0 - 1000 edge_14_17_0_0 <= 0
 inactive_no_flow_17_2_0_0: flow_17_2_0_0 - 1000 edge_17_2_0_0 <= 0
 inactive_no_flow_17_3_0_0: flow_17_3_0_0 - 1000 edge_17_3_0_0 <= 0
 inactive_no_flow_17_6_0_0: flow_17_6_0_0 - 1000 edge_17_6_0_0 <= 0
 inactive_no_flow_17_7_0_0: flow_17_7_0_0 - 1000 edge_17_7_0_0 <= 0
 inactive_no_flow_17_8_0_0: flow_17_8_0_0 - 1000 edge_17_8_0_0 <= 0
 inactive_no_flow_17_11_0_0: flow_17_11_0_0 - 1000 edge_17_11_0_0 <= 0
 inactive_no_flow_17_12_0_0: flow_17_12_0_0 - 1000 edge_17_12_0_0 <= 0
 inactive_no_flow_17_13_0_0: flow_17_13_0_0 - 1000 edge_17_13_0_0 <= 0
 inactive_no_flow_17_14_0_0: flow_17_14_0_0 - 1000 edge_17_14_0_0 <= 0
Bounds
Binaries
 edge_0_1_0_0 edge_0_2_0_0 edge_0_3_0_0 edge_0_4_0_0 edge_0_10_0_0
 edge_1_2_0_0 edge_2_1_0_0 edge_2_3_0_0 edge_2_4_0_0 edge_2_5_0_0
 edge_2_6_0_0 edge_2_7_0_0 edge_2_8_0_0 edge_2_10_0_0 edge_2_12_0_0
 edge_2_13_0_0 edge_2_14_0_0 edge_3_1_0_0 edge_3_2_0_0 edge_3_4_0_0
 edge_3_5_0_0 edge_3_6_0_0 edge_3_7_0_0 edge_3_8_0_0 edge_3_10_0_0
 edge_3_12_0_0 edge_3_13_0_0 edge_3_14_0_0 edge_3_17_0_0 edge_4_1_0_0
 edge_4_2_0_0 edge_4_3_0_0 edge_4_5_0_0 edge_4_7_0_0 edge_4_8_0_0
 edge_4_10_0_0 edge_4_12_0_0 edge_4_13_0_0 edge_4_14_0_0 edge_4_17_0_0
 edge_5_4_0_0 edge_6_7_0_0 edge_6_10_0_0 edge_6_12_0_0 edge_7_1_0_0
 edge_7_3_0_0 edge_7_5_0_0 edge_7_6_0_0 edge_7_10_0_0 edge_7_11_0_0
 edge_7_12_0_0 edge_7_14_0_0 edge_7_17_0_0 edge_8_1_0_0 edge_8_2_0_0
 edge_8_3_0_0 edge_8_4_0_0 edge_8_5_0_0 edge_8_6_0_0 edge_8_7_0_0
 edge_8_10_0_0 edge_8_12_0_0 edge_8_13_0_0 edge_8_14_0_0 edge_8_17_0_0
 edge_10_2_0_0 edge_10_3_0_0 edge_10_4_0_0 edge_10_5_0_0 edge_10_6_0_0
 edge_10_7_0_0 edge_10_8_0_0 edge_10_12_0_0 edge_10_13_0_0 edge_10_14_0_0
 edge_10_17_0_0 edge_11_17_0_0 edge_12_1_0_0 edge_12_3_0_0 edge_12_6_0_0
 edge_12_7_0_0 edge_12_11_0_0 edge_12_13_0_0 edge_12_14_0_0 edge_12_17_0_0
 edge_14_11_0_0 edge_14_13_0_0 edge_14_17_0_0 edge_17_2_0_0 edge_17_3_0_0
 edge_17_6_0_0 edge_17_7_0_0 edge_17_8_0_0 edge_17_11_0_0 edge_17_12_0_0
 edge_17_13_0_0 edge_17_14_0_0
End
